set VV := 0 1 2 3 4 5 6 7 8 9 10 11 12 13 14 15 16 17 18 19 20 21 22 23 24 25 ;
set VS := 0 1 2 3 4 5 6 7 8 9 10 11 12 13 14 15 16 17 18 19 20 21 22 23 24 25 26 27 28 29 30 31 32 33 34 35 36 37 38 39 40 41 42 43 44 45 46 47 48 49 50 51 52 53 54 55 ;
param cv := 
0 19
1 12
2 21
3 21
4 10
5 24
6 15
7 23
8 10
9 19
10 19
11 24
12 16
13 15
14 11
15 13
16 23
17 15
18 22
19 10
20 13
21 22
22 18
23 19
24 22
25 10
;
param cs := 
0 26
1 27
2 36
3 38
4 30
5 30
6 27
7 33
8 40
9 26
10 24
11 32
12 30
13 20
14 22
15 35
16 39
17 39
18 39
19 37
20 36
21 25
22 34
23 28
24 35
25 38
26 32
27 35
28 23
29 30
30 26
31 21
32 22
33 39
34 29
35 40
36 40
37 30
38 32
39 30
40 32
41 40
42 22
43 28
44 26
45 35
46 40
47 38
48 36
49 38
50 38
51 30
52 35
53 21
54 39
55 22
;
param bv:	 0 1 2 3 4 5 6 7 8 9 10 11 12 13 14 15 16 17 18 19 20 21 22 23 24 25 := 
		0 0 10 0 0 0 0 0 0 0 0 0 0 0 0 0 0 0 0 0 0 0 0 12 0 0 0 
		1 0 0 0 0 0 0 18 0 0 0 0 0 0 0 0 0 0 0 0 0 12 0 0 0 0 0 
		2 0 0 0 0 0 0 0 0 0 0 24 0 0 0 0 19 0 21 17 24 0 0 15 0 0 0 
		3 0 0 0 0 0 0 0 0 14 0 15 0 0 0 0 0 0 0 0 0 0 0 0 24 0 0 
		4 0 0 0 0 0 0 0 0 0 22 0 12 22 0 10 0 0 0 0 0 0 0 16 0 0 0 
		5 0 0 0 0 0 0 0 0 0 0 0 17 0 10 0 0 18 0 0 0 0 0 0 0 0 0 
		6 0 0 0 0 0 0 0 20 0 22 0 0 0 0 0 0 0 13 0 14 0 0 0 0 0 22 
		7 0 0 0 0 0 0 0 0 21 14 0 0 0 0 0 0 0 0 0 0 0 0 0 0 0 0 
		8 0 0 0 0 0 0 0 0 0 0 0 0 11 0 0 0 0 0 0 0 0 0 0 0 0 0 
		9 0 0 0 0 0 0 0 0 0 0 0 0 0 0 0 0 0 0 0 0 0 0 0 0 0 0 
		10 0 0 0 0 0 0 0 0 0 0 0 0 0 0 13 0 0 0 0 19 0 0 0 0 0 0 
		11 0 0 0 0 0 0 0 0 0 0 0 0 0 0 0 0 0 12 0 19 0 0 0 0 0 0 
		12 0 0 0 0 0 0 0 0 0 0 0 0 0 0 0 0 0 0 0 0 0 0 0 0 0 0 
		13 0 0 0 0 0 0 0 0 0 0 0 0 0 0 18 0 0 0 0 0 20 25 0 17 0 0 
		14 0 0 0 0 0 0 0 0 0 0 0 0 0 0 0 0 0 11 0 0 0 0 0 0 0 0 
		15 0 0 0 0 0 0 0 0 0 0 0 0 0 0 0 0 0 0 20 0 24 13 0 0 0 0 
		16 0 0 0 0 0 0 0 0 0 0 0 0 0 0 0 0 0 0 0 0 0 0 0 0 0 0 
		17 0 0 0 0 0 0 0 0 0 0 0 0 0 0 0 0 0 0 0 21 0 0 0 0 0 0 
		18 0 0 0 0 0 0 0 0 0 0 0 0 0 0 0 0 0 0 0 22 0 0 25 0 19 0 
		19 0 0 0 0 0 0 0 0 0 0 0 0 0 0 0 0 0 0 0 0 0 22 0 0 0 0 
		20 0 0 0 0 0 0 0 0 0 0 0 0 0 0 0 0 0 0 0 0 0 0 16 0 0 0 
		21 0 0 0 0 0 0 0 0 0 0 0 0 0 0 0 0 0 0 0 0 0 0 0 23 0 25 
		22 0 0 0 0 0 0 0 0 0 0 0 0 0 0 0 0 0 0 0 0 0 0 0 0 0 0 
		23 0 0 0 0 0 0 0 0 0 0 0 0 0 0 0 0 0 0 0 0 0 0 0 0 14 0 
		24 0 0 0 0 0 0 0 0 0 0 0 0 0 0 0 0 0 0 0 0 0 0 0 0 0 19 
		25 0 0 0 0 0 0 0 0 0 0 0 0 0 0 0 0 0 0 0 0 0 0 0 0 0 0 
;
param bs:	 0 1 2 3 4 5 6 7 8 9 10 11 12 13 14 15 16 17 18 19 20 21 22 23 24 25 26 27 28 29 30 31 32 33 34 35 36 37 38 39 40 41 42 43 44 45 46 47 48 49 50 51 52 53 54 55 := 
		0 0 0 0 0 0 0 0 22 0 0 0 0 0 0 0 23 0 0 26 0 0 0 0 0 0 0 0 0 0 0 0 30 0 0 33 0 0 0 0 0 0 0 0 0 27 0 0 0 0 0 0 0 0 0 40 0 
		1 0 0 0 0 0 0 0 0 0 0 0 0 0 0 0 0 0 0 0 0 0 0 0 0 0 29 0 0 0 0 0 0 0 0 0 0 0 0 0 0 0 0 0 0 0 0 0 0 0 0 0 0 0 0 0 0 
		2 0 0 0 0 0 0 0 0 0 0 0 29 0 0 0 0 0 0 0 0 0 0 0 0 0 0 0 0 0 0 0 0 0 0 40 0 0 0 0 0 0 0 0 0 0 0 29 32 0 36 0 0 0 0 0 0 
		3 0 0 0 0 0 0 0 0 21 0 0 0 0 0 0 0 0 32 0 0 20 0 0 0 0 0 0 0 0 0 0 0 0 0 0 0 0 0 0 0 0 36 0 0 0 0 0 0 29 0 0 0 30 0 37 0 
		4 0 0 0 0 0 0 0 0 36 0 0 0 0 0 38 0 0 0 0 0 0 0 0 0 0 0 0 0 0 39 0 0 0 0 0 0 0 0 0 0 0 0 0 0 0 0 0 0 0 24 0 0 21 0 0 0 
		5 0 0 0 0 0 0 0 0 0 27 0 0 0 0 0 0 0 0 0 0 0 0 0 0 0 0 0 0 32 0 0 0 0 0 0 0 0 0 0 0 0 0 0 35 0 0 0 0 0 0 0 0 0 0 0 0 
		6 0 0 0 0 0 0 0 0 0 0 0 0 0 0 0 0 0 39 0 0 0 0 0 0 0 0 0 0 0 0 0 0 27 29 0 35 26 0 0 0 0 0 0 33 0 0 0 0 0 0 0 0 0 0 0 0 
		7 22 0 0 0 0 0 0 0 0 0 0 0 37 0 0 0 0 0 0 0 0 0 0 0 0 0 0 0 0 0 0 0 34 0 0 33 0 0 0 0 0 0 0 0 27 0 0 0 0 0 0 0 37 0 0 33 
		8 0 0 0 21 36 0 0 0 0 0 0 0 0 28 0 28 0 0 37 0 0 0 0 0 26 0 34 0 0 0 0 0 0 0 24 0 24 0 25 0 0 0 36 0 0 0 0 0 0 0 0 0 0 0 0 0 
		9 0 0 0 0 0 27 0 0 0 0 0 0 0 0 0 0 0 0 0 0 0 0 0 0 0 0 0 0 0 0 0 31 0 0 0 0 0 0 0 0 0 0 0 0 0 0 0 0 0 0 0 0 0 0 0 0 
		10 0 0 0 0 0 0 0 0 0 0 0 0 0 0 0 0 0 40 0 40 0 0 0 0 0 0 0 0 0 0 0 0 0 0 0 0 0 0 0 0 0 0 0 0 0 0 0 24 0 0 0 39 0 0 0 0 
		11 0 0 29 0 0 0 0 0 0 0 0 0 34 0 0 32 33 32 0 0 0 0 0 0 0 0 0 0 38 0 0 0 0 0 0 0 28 30 0 0 0 0 0 0 0 0 0 0 0 0 0 0 0 0 33 38 
		12 0 0 0 0 0 0 0 37 0 0 0 34 0 0 0 0 0 0 0 0 34 0 0 0 0 0 0 0 0 0 0 0 0 0 30 23 0 0 34 21 0 0 0 0 0 0 0 0 0 0 34 0 0 0 0 0 
		13 0 0 0 0 0 0 0 0 28 0 0 0 0 0 0 0 0 0 0 0 0 0 0 0 0 0 0 0 0 0 0 0 0 0 0 0 0 0 20 0 24 0 0 0 0 0 0 0 0 0 0 0 0 0 36 0 
		14 0 0 0 0 38 0 0 0 0 0 0 0 0 0 0 21 0 0 0 0 0 0 0 0 0 0 0 0 0 0 0 0 0 0 0 0 0 0 0 0 0 0 22 0 0 0 0 0 0 0 0 0 0 33 0 0 
		15 23 0 0 0 0 0 0 0 28 0 0 32 0 0 21 0 0 0 27 0 0 0 38 0 0 0 28 0 0 0 0 0 0 0 0 0 0 0 0 0 0 0 0 0 0 0 0 31 0 0 0 0 0 0 0 0 
		16 0 0 0 0 0 0 0 0 0 0 0 33 0 0 0 0 0 0 0 0 0 0 35 0 0 0 0 0 22 0 0 0 0 0 0 0 0 0 22 0 0 0 0 0 0 0 0 0 0 0 0 0 0 0 0 0 
		17 0 0 0 32 0 0 39 0 0 0 40 32 0 0 0 0 0 0 0 0 0 0 0 0 22 0 0 0 0 0 0 0 39 0 0 0 0 37 0 0 0 0 0 0 0 0 0 0 0 0 0 0 0 0 0 0 
		18 26 0 0 0 0 0 0 0 37 0 0 0 0 0 0 27 0 0 0 0 0 0 0 0 0 0 20 0 0 0 0 0 0 0 0 0 0 0 0 0 0 0 0 0 0 0 0 0 0 0 0 0 0 0 0 0 
		19 0 0 0 0 0 0 0 0 0 0 40 0 0 0 0 0 0 0 0 0 0 0 0 0 40 0 0 0 0 0 0 0 28 0 0 0 34 0 0 0 0 0 0 0 0 0 0 0 0 0 0 38 0 0 0 0 
		20 0 0 0 20 0 0 0 0 0 0 0 0 34 0 0 0 0 0 0 0 0 0 0 0 0 0 0 0 0 37 0 0 30 0 20 26 0 0 0 0 0 0 0 0 0 40 0 0 0 0 0 27 0 0 0 0 
		21 0 0 0 0 0 0 0 0 0 0 0 0 0 0 0 0 0 0 0 0 0 0 0 0 0 0 0 0 0 0 0 0 0 0 0 0 0 0 0 0 0 0 0 0 29 0 0 0 0 0 0 0 0 0 36 0 
		22 0 0 0 0 0 0 0 0 0 0 0 0 0 0 0 38 35 0 0 0 0 0 0 0 0 0 0 0 0 0 0 0 0 0 0 0 0 36 40 25 0 0 0 0 0 0 0 33 0 25 0 0 0 0 0 0 
		23 0 0 0 0 0 0 0 0 0 0 0 0 0 0 0 0 0 0 0 0 0 0 0 0 0 39 0 0 0 0 24 0 0 0 0 0 20 0 0 0 0 0 0 0 0 0 0 0 36 0 0 0 0 0 31 0 
		24 0 0 0 0 0 0 0 0 26 0 0 0 0 0 0 0 0 22 0 40 0 0 0 0 0 0 0 0 0 0 0 0 0 0 0 0 21 0 0 0 0 0 0 0 0 0 0 25 0 0 0 0 0 0 0 0 
		25 0 29 0 0 0 0 0 0 0 0 0 0 0 0 0 0 0 0 0 0 0 0 0 39 0 0 0 0 0 0 0 0 0 0 0 0 0 0 0 0 0 0 0 0 0 0 0 0 0 0 0 0 0 38 30 0 
		26 0 0 0 0 0 0 0 0 34 0 0 0 0 0 0 28 0 0 20 0 0 0 0 0 0 0 0 0 0 31 0 0 0 0 0 0 0 0 0 0 32 0 0 0 0 0 0 27 0 0 0 0 28 0 0 0 
		27 0 0 0 0 0 0 0 0 0 0 0 0 0 0 0 0 0 0 0 0 0 0 0 0 0 0 0 0 0 39 0 0 0 0 31 0 0 0 0 21 0 0 0 0 0 28 0 0 0 0 31 0 0 0 0 0 
		28 0 0 0 0 0 32 0 0 0 0 0 38 0 0 0 0 22 0 0 0 0 0 0 0 0 0 0 0 0 0 0 0 0 0 28 0 0 0 0 0 0 0 0 0 0 0 0 0 36 0 0 0 0 0 0 0 
		29 0 0 0 0 39 0 0 0 0 0 0 0 0 0 0 0 0 0 0 0 37 0 0 0 0 0 31 39 0 0 0 33 0 0 0 0 0 20 0 0 0 0 0 0 0 0 0 0 0 0 0 0 0 0 0 0 
		30 0 0 0 0 0 0 0 0 0 0 0 0 0 0 0 0 0 0 0 0 0 0 0 24 0 0 0 0 0 0 0 0 0 0 0 0 0 0 0 0 20 0 0 0 0 0 0 0 0 0 0 0 0 0 26 0 
		31 30 0 0 0 0 0 0 0 0 31 0 0 0 0 0 0 0 0 0 0 0 0 0 0 0 0 0 0 0 33 0 0 0 0 0 0 0 0 0 0 0 39 0 0 35 0 21 0 0 0 0 0 0 0 0 0 
		32 0 0 0 0 0 0 27 34 0 0 0 0 0 0 0 0 0 39 0 28 30 0 0 0 0 0 0 0 0 0 0 0 0 38 0 0 0 0 0 0 0 0 0 21 0 0 0 0 0 0 0 0 0 0 0 28 
		33 0 0 0 0 0 0 29 0 0 0 0 0 0 0 0 0 0 0 0 0 0 0 0 0 0 0 0 0 0 0 0 0 38 0 0 0 0 0 0 0 0 0 0 0 0 0 0 0 0 0 0 22 0 0 0 0 
		34 33 0 40 0 0 0 0 0 24 0 0 0 30 0 0 0 0 0 0 0 20 0 0 0 0 0 0 31 28 0 0 0 0 0 0 0 0 37 23 0 0 0 0 0 0 0 0 0 0 0 0 0 0 0 0 0 
		35 0 0 0 0 0 0 35 33 0 0 0 0 23 0 0 0 0 0 0 0 26 0 0 0 0 0 0 0 0 0 0 0 0 0 0 0 40 32 0 0 0 0 20 0 0 0 0 0 0 0 0 0 39 0 0 0 
		36 0 0 0 0 0 0 26 0 24 0 0 28 0 0 0 0 0 0 0 34 0 0 0 20 21 0 0 0 0 0 0 0 0 0 0 40 0 0 0 0 0 0 0 0 0 0 0 24 0 0 0 0 0 0 38 0 
		37 0 0 0 0 0 0 0 0 0 0 0 30 0 0 0 0 0 37 0 0 0 0 36 0 0 0 0 0 0 20 0 0 0 0 37 32 0 0 0 0 0 0 24 0 0 0 0 0 0 0 0 0 0 30 0 27 
		38 0 0 0 0 0 0 0 0 25 0 0 0 34 20 0 0 22 0 0 0 0 0 40 0 0 0 0 0 0 0 0 0 0 0 23 0 0 0 0 0 0 20 0 0 0 0 0 0 0 0 0 0 0 0 0 0 
		39 0 0 0 0 0 0 0 0 0 0 0 0 21 0 0 0 0 0 0 0 0 0 25 0 0 0 0 21 0 0 0 0 0 0 0 0 0 0 0 0 0 0 0 0 0 0 0 0 0 0 0 0 0 0 0 0 
		40 0 0 0 0 0 0 0 0 0 0 0 0 0 24 0 0 0 0 0 0 0 0 0 0 0 0 32 0 0 0 20 0 0 0 0 0 0 0 0 0 0 0 0 0 0 0 0 39 0 0 0 0 0 0 0 0 
		41 0 0 0 36 0 0 0 0 0 0 0 0 0 0 0 0 0 0 0 0 0 0 0 0 0 0 0 0 0 0 0 39 0 0 0 0 0 0 20 0 0 0 0 0 0 0 0 0 0 0 0 0 0 0 0 0 
		42 0 0 0 0 0 0 0 0 36 0 0 0 0 0 22 0 0 0 0 0 0 0 0 0 0 0 0 0 0 0 0 0 0 0 0 20 0 24 0 0 0 0 0 0 21 0 0 0 0 0 0 0 0 0 0 0 
		43 0 0 0 0 0 35 33 0 0 0 0 0 0 0 0 0 0 0 0 0 0 0 0 0 0 0 0 0 0 0 0 0 21 0 0 0 0 0 0 0 0 0 0 0 0 0 0 0 0 0 0 21 0 0 0 0 
		44 27 0 0 0 0 0 0 27 0 0 0 0 0 0 0 0 0 0 0 0 0 29 0 0 0 0 0 0 0 0 0 35 0 0 0 0 0 0 0 0 0 0 21 0 0 0 0 0 0 0 0 0 0 0 0 0 
		45 0 0 0 0 0 0 0 0 0 0 0 0 0 0 0 0 0 0 0 0 40 0 0 0 0 0 0 28 0 0 0 0 0 0 0 0 0 0 0 0 0 0 0 0 0 0 40 0 0 0 0 0 0 0 0 0 
		46 0 0 29 0 0 0 0 0 0 0 0 0 0 0 0 0 0 0 0 0 0 0 0 0 0 0 0 0 0 0 0 21 0 0 0 0 0 0 0 0 0 0 0 0 0 40 0 0 0 0 0 0 0 0 0 0 
		47 0 0 32 0 0 0 0 0 0 0 24 0 0 0 0 31 0 0 0 0 0 0 33 0 25 0 27 0 0 0 0 0 0 0 0 0 24 0 0 0 39 0 0 0 0 0 0 0 0 0 0 34 0 0 0 0 
		48 0 0 0 29 0 0 0 0 0 0 0 0 0 0 0 0 0 0 0 0 0 0 0 36 0 0 0 0 36 0 0 0 0 0 0 0 0 0 0 0 0 0 0 0 0 0 0 0 0 0 0 0 0 0 0 0 
		49 0 0 36 0 24 0 0 0 0 0 0 0 0 0 0 0 0 0 0 0 0 0 25 0 0 0 0 0 0 0 0 0 0 0 0 0 0 0 0 0 0 0 0 0 0 0 0 0 0 0 0 0 0 0 0 0 
		50 0 0 0 0 0 0 0 0 0 0 0 0 34 0 0 0 0 0 0 0 0 0 0 0 0 0 0 31 0 0 0 0 0 0 0 0 0 0 0 0 0 0 0 0 0 0 0 0 0 0 0 0 0 0 0 22 
		51 0 0 0 0 0 0 0 0 0 0 39 0 0 0 0 0 0 0 0 38 27 0 0 0 0 0 0 0 0 0 0 0 0 22 0 0 0 0 0 0 0 0 0 21 0 0 0 34 0 0 0 0 0 0 0 0 
		52 0 0 0 30 21 0 0 37 0 0 0 0 0 0 0 0 0 0 0 0 0 0 0 0 0 0 28 0 0 0 0 0 0 0 0 39 0 0 0 0 0 0 0 0 0 0 0 0 0 0 0 0 0 0 0 22 
		53 0 0 0 0 0 0 0 0 0 0 0 0 0 0 33 0 0 0 0 0 0 0 0 0 0 38 0 0 0 0 0 0 0 0 0 0 0 30 0 0 0 0 0 0 0 0 0 0 0 0 0 0 0 0 30 0 
		54 40 0 0 37 0 0 0 0 0 0 0 33 0 36 0 0 0 0 0 0 0 36 0 31 0 30 0 0 0 0 26 0 0 0 0 0 38 0 0 0 0 0 0 0 0 0 0 0 0 0 0 0 0 30 0 29 
		55 0 0 0 0 0 0 0 33 0 0 0 38 0 0 0 0 0 0 0 0 0 0 0 0 0 0 0 0 0 0 0 0 28 0 0 0 0 27 0 0 0 0 0 0 0 0 0 0 0 0 22 0 22 0 29 0 
;
